
;this file is automatically generated: Mon Feb 10 17:02:04 CST 2020

;declarations generated

(declare-fun oclExcludes ( Int Int) Bool)
(declare-fun obj_e59bd691_fa50_47d0_b2ef_842e8d5b75e9 ( Int) Int)
(declare-fun Cardinality ( Int) Int)
(declare-fun type_94475eb6_9324_4b70_baec_80c9e8e86d17_Class16 ( Int) Bool)
(declare-fun oclSelect ( Int Bool) Int)
(declare-fun Enum0 ( Int) Int)
(declare-fun Enum1 ( Int) Int)
(declare-fun container_ ( Int) Int)
(declare-fun oclIncludes ( Int Int) Bool)
(declare-fun ObjAt ( Int Int) Int)

;formula(s) generated
(assert (forall ((p Int)) (=> ( type_94475eb6_9324_4b70_baec_80c9e8e86d17_Class16 p )  (and (>= ( Enum1 ( obj_e59bd691_fa50_47d0_b2ef_842e8d5b75e9 p )  )  0) (<= ( Enum1 ( obj_e59bd691_fa50_47d0_b2ef_842e8d5b75e9 p )  )  6)))))
(assert (! (forall ((v Int)) (=> ( type_94475eb6_9324_4b70_baec_80c9e8e86d17_Class16 v )  (= ( Enum1 ( obj_e59bd691_fa50_47d0_b2ef_842e8d5b75e9 v )  )  0))):named l0))
(assert (exists ((o Int)) ( type_94475eb6_9324_4b70_baec_80c9e8e86d17_Class16 ( obj_e59bd691_fa50_47d0_b2ef_842e8d5b75e9 o )  ) ))

 ;end of formula 